p wcnf 174 348 349 
1 -85 -130 0 
1 88 -144 0 
1 74 161 0 
1 28 101 0 
1 159 18 0 
1 -125 -73 0 
1 -117 -146 0 
1 163 -91 0 
1 -49 59 0 
1 -17 18 0 
1 150 -61 0 
1 80 42 0 
1 116 132 0 
1 -147 135 0 
1 -153 -26 0 
1 48 -86 0 
1 48 -91 0 
1 41 8 0 
1 159 -174 0 
1 -96 -26 0 
1 90 -157 0 
1 24 -78 0 
1 -75 67 0 
1 152 96 0 
1 -51 73 0 
1 -110 -13 0 
1 -170 118 0 
1 -13 60 0 
1 -139 -161 0 
1 87 -10 0 
1 165 15 0 
1 11 -118 0 
1 23 62 0 
1 137 125 0 
1 -18 -122 0 
1 -117 -145 0 
1 -57 -37 0 
1 -152 35 0 
1 -64 -119 0 
1 135 36 0 
1 -127 -59 0 
1 119 142 0 
1 165 -81 0 
1 58 16 0 
1 20 -4 0 
1 103 4 0 
1 54 22 0 
1 70 -117 0 
1 58 -88 0 
1 16 79 0 
1 124 -89 0 
1 40 162 0 
1 6 -108 0 
1 57 30 0 
1 141 -125 0 
1 137 78 0 
1 68 -139 0 
1 -126 125 0 
1 172 37 0 
1 -93 -108 0 
1 94 -93 0 
1 58 123 0 
1 158 25 0 
1 -61 20 0 
1 81 -26 0 
1 67 23 0 
1 32 -65 0 
1 -10 -45 0 
1 -89 74 0 
1 125 163 0 
1 -64 -156 0 
1 -79 38 0 
1 -106 97 0 
1 -68 79 0 
1 66 -40 0 
1 33 -147 0 
1 -6 -174 0 
1 -122 -172 0 
1 149 61 0 
1 23 -44 0 
1 -25 5 0 
1 -168 -82 0 
1 -69 -100 0 
1 -54 55 0 
1 -10 -171 0 
1 145 -128 0 
1 102 -77 0 
1 -115 126 0 
1 61 -174 0 
1 -130 -24 0 
1 107 -13 0 
1 -148 43 0 
1 -49 -57 0 
1 -154 13 0 
1 162 96 0 
1 3 -117 0 
1 69 -70 0 
1 -91 34 0 
1 137 23 0 
1 158 173 0 
1 -103 -36 0 
1 -59 -74 0 
1 -71 16 0 
1 -142 -43 0 
1 115 -154 0 
1 14 15 0 
1 -15 -30 0 
1 -150 140 0 
1 75 37 0 
1 142 -77 0 
1 -69 20 0 
1 -41 142 0 
1 60 -53 0 
1 113 45 0 
1 89 -12 0 
1 86 -50 0 
1 16 22 0 
1 40 -63 0 
1 64 -22 0 
1 44 17 0 
1 -10 -36 0 
1 8 -30 0 
1 -127 173 0 
1 -58 97 0 
1 124 -160 0 
1 -150 -110 0 
1 92 -85 0 
1 63 -50 0 
1 -4 100 0 
1 -13 -27 0 
1 126 152 0 
1 -112 55 0 
1 160 82 0 
1 111 86 0 
1 174 -8 0 
1 -15 -70 0 
1 141 79 0 
1 30 -158 0 
1 116 4 0 
1 -123 -53 0 
1 -143 3 0 
1 21 -11 0 
1 -40 -152 0 
1 -151 -63 0 
1 32 -72 0 
1 -53 47 0 
1 -94 -63 0 
1 76 34 0 
1 -82 115 0 
1 -24 68 0 
1 -6 8 0 
1 -68 36 0 
1 91 -152 0 
1 -172 22 0 
1 51 21 0 
1 -117 -161 0 
1 -37 106 0 
1 -142 -151 0 
1 -136 109 0 
1 46 133 0 
1 -36 142 0 
1 127 -96 0 
1 51 -46 0 
1 9 114 0 
1 32 -120 0 
1 75 -49 0 
1 170 76 0 
1 22 -139 0 
1 -94 -34 0 
1 95 64 0 
1 113 58 0 
1 -100 -14 0 
1 55 -128 0 
1 23 134 0 
1 100 -66 0 
1 151 119 0 
1 -65 37 0 
1 43 95 0 
1 94 -149 0 
1 -168 -61 0 
1 134 -107 0 
1 26 -62 0 
1 13 -172 0 
1 128 113 0 
1 -70 -44 0 
1 -22 33 0 
1 19 4 0 
1 -84 58 0 
1 157 145 0 
1 64 23 0 
1 -1 47 0 
1 112 147 0 
1 -51 -147 0 
1 17 -166 0 
1 139 -8 0 
1 -107 -162 0 
1 -41 -133 0 
1 -87 148 0 
1 -155 -22 0 
1 -114 -119 0 
1 32 58 0 
1 94 -42 0 
1 98 -89 0 
1 157 100 0 
1 168 -14 0 
1 -45 19 0 
1 93 -39 0 
1 -38 -84 0 
1 -85 -153 0 
1 67 -144 0 
1 173 -152 0 
1 -46 35 0 
1 16 39 0 
1 106 94 0 
1 72 -149 0 
1 152 9 0 
1 -112 -57 0 
1 77 97 0 
1 -112 79 0 
1 -161 170 0 
1 -164 25 0 
1 -27 -157 0 
1 -107 171 0 
1 146 128 0 
1 28 -68 0 
1 63 -127 0 
1 -146 148 0 
1 -74 -96 0 
1 31 -43 0 
1 125 -46 0 
1 155 -6 0 
1 55 -5 0 
1 -65 -125 0 
1 76 -14 0 
1 171 -58 0 
1 -1 -72 0 
1 -156 -150 0 
1 67 170 0 
1 -158 -56 0 
1 122 -116 0 
1 -82 30 0 
1 27 34 0 
1 54 92 0 
1 -157 -49 0 
1 23 -111 0 
1 1 -35 0 
1 105 70 0 
1 -102 -159 0 
1 17 -70 0 
1 50 -115 0 
1 49 18 0 
1 77 171 0 
1 -66 141 0 
1 -13 -66 0 
1 99 53 0 
1 3 153 0 
1 104 -160 0 
1 10 62 0 
1 157 48 0 
1 -141 165 0 
1 -121 156 0 
1 85 -149 0 
1 -117 -80 0 
1 -82 43 0 
1 76 -91 0 
1 -105 94 0 
1 -31 -36 0 
1 12 -117 0 
1 96 129 0 
1 -114 65 0 
1 -155 76 0 
1 156 47 0 
1 73 -22 0 
1 144 155 0 
1 71 147 0 
1 79 -57 0 
1 67 -34 0 
1 62 -114 0 
1 -116 -140 0 
1 -22 -138 0 
1 70 124 0 
1 -156 -157 0 
1 8 -38 0 
1 51 102 0 
1 -56 149 0 
1 21 112 0 
1 -37 -3 0 
1 -75 -14 0 
1 71 72 0 
1 80 -102 0 
1 68 -2 0 
1 -147 -173 0 
1 -15 152 0 
1 -128 88 0 
1 17 133 0 
1 40 -170 0 
1 11 34 0 
1 96 76 0 
1 -24 -50 0 
1 174 -14 0 
1 -18 -172 0 
1 -160 10 0 
1 -10 -47 0 
1 56 4 0 
1 78 23 0 
1 44 140 0 
1 139 13 0 
1 156 -6 0 
1 -109 1 0 
1 107 -64 0 
1 151 34 0 
1 44 -79 0 
1 -95 -101 0 
1 -45 -53 0 
1 136 -9 0 
1 56 -171 0 
1 -154 -101 0 
1 71 -96 0 
1 152 26 0 
1 119 -31 0 
1 -119 -103 0 
1 -53 105 0 
1 -80 153 0 
1 -169 -70 0 
1 -82 147 0 
1 146 83 0 
1 -118 98 0 
1 -122 -12 0 
1 -66 103 0 
1 -172 -164 0 
1 -7 -165 0 
1 -139 29 0 
1 143 65 0 
1 47 29 0 
1 -17 109 0 
1 -11 -15 0 
1 -57 -51 0 
1 -138 -119 0 
1 20 21 0 
1 -171 -3 0 
1 141 -17 0 
1 10 -26 0 
1 -128 -95 0 
1 -96 -126 0 
1 164 -161 0 
1 -143 -50 0 
1 -38 163 0 
1 127 162 0 
